
Gurobi 8.1.1 (win64, Python) logging started 07/02/19 09:05:28

Academic license - for non-commercial use only

Gurobi 8.1.1 (win64, Python) logging started 07/03/19 18:11:44

Academic license - for non-commercial use only

Gurobi 8.1.1 (win64, Python) logging started 07/10/19 09:59:35

Academic license - for non-commercial use only

Gurobi 8.1.1 (win64, Python) logging started 07/11/19 13:57:42

Academic license - for non-commercial use only

Gurobi 8.1.1 (win64, Python) logging started 07/11/19 14:47:49

Academic license - for non-commercial use only
Warning for adding constraints: zero or small (< 1e-13) coefficients, ignored

Gurobi 8.1.1 (win64, Python) logging started 07/11/19 14:48:04

Academic license - for non-commercial use only
Warning for adding constraints: zero or small (< 1e-13) coefficients, ignored

Gurobi 8.1.1 (win64, Python) logging started 07/11/19 14:48:54

Academic license - for non-commercial use only
Warning for adding constraints: zero or small (< 1e-13) coefficients, ignored

Gurobi 8.1.1 (win64, Python) logging started 07/11/19 14:50:10

Academic license - for non-commercial use only
Warning for adding constraints: zero or small (< 1e-13) coefficients, ignored

Gurobi 8.1.1 (win64, Python) logging started 07/11/19 14:55:31

Academic license - for non-commercial use only

Gurobi 8.1.1 (win64, Python) logging started 07/11/19 15:06:44

Academic license - for non-commercial use only
Warning for adding constraints: zero or small (< 1e-13) coefficients, ignored

Gurobi 8.1.1 (win64, Python) logging started 07/11/19 15:08:06

Academic license - for non-commercial use only
Warning for adding constraints: zero or small (< 1e-13) coefficients, ignored

Gurobi 8.1.1 (win64, Python) logging started 07/11/19 15:08:40

Academic license - for non-commercial use only
Warning for adding constraints: zero or small (< 1e-13) coefficients, ignored

Gurobi 8.1.1 (win64, Python) logging started 07/11/19 15:10:29

Academic license - for non-commercial use only
Warning for adding constraints: zero or small (< 1e-13) coefficients, ignored

Gurobi 8.1.1 (win64, Python) logging started 07/11/19 15:12:54

Academic license - for non-commercial use only
Warning for adding constraints: zero or small (< 1e-13) coefficients, ignored

Gurobi 8.1.1 (win64, Python) logging started 07/11/19 15:19:29

Academic license - for non-commercial use only
Warning for adding constraints: zero or small (< 1e-13) coefficients, ignored

Gurobi 8.1.1 (win64, Python) logging started 07/11/19 15:28:05

Academic license - for non-commercial use only
Warning for adding constraints: zero or small (< 1e-13) coefficients, ignored

Gurobi 8.1.1 (win64, Python) logging started 07/11/19 15:33:44

Academic license - for non-commercial use only
Warning for adding constraints: zero or small (< 1e-13) coefficients, ignored

Gurobi 8.1.1 (win64, Python) logging started 07/11/19 15:34:19

Academic license - for non-commercial use only
Warning for adding constraints: zero or small (< 1e-13) coefficients, ignored

Gurobi 8.1.1 (win64, Python) logging started 07/11/19 15:36:35

Academic license - for non-commercial use only
Warning for adding constraints: zero or small (< 1e-13) coefficients, ignored

Gurobi 8.1.1 (win64, Python) logging started 07/11/19 15:36:53

Academic license - for non-commercial use only
Warning for adding constraints: zero or small (< 1e-13) coefficients, ignored

Gurobi 8.1.1 (win64, Python) logging started 07/11/19 15:39:51

Academic license - for non-commercial use only
Warning for adding constraints: zero or small (< 1e-13) coefficients, ignored

Gurobi 8.1.1 (win64, Python) logging started 07/11/19 15:42:33

Academic license - for non-commercial use only
Warning for adding constraints: zero or small (< 1e-13) coefficients, ignored

Gurobi 8.1.1 (win64, Python) logging started 07/11/19 15:43:11

Academic license - for non-commercial use only
Warning for adding constraints: zero or small (< 1e-13) coefficients, ignored

Gurobi 8.1.1 (win64, Python) logging started 07/11/19 15:46:39

Academic license - for non-commercial use only
Warning for adding constraints: zero or small (< 1e-13) coefficients, ignored

Gurobi 8.1.1 (win64, Python) logging started 07/11/19 15:49:32

Academic license - for non-commercial use only

Gurobi 8.1.1 (win64, Python) logging started 09/06/19 16:36:38

